Reproduction of the Original Problem/Instances/S1-5/S1-15-5-1-l.txt
     100       5    0.15
       3       2       2       2       3       9      14      10       1       3       3
       1       3       2       3       2       4       7       4       8      11       3
       3       2       2       3       2      14       2      14       7      15       2
       1       3       3       2       2       9       7      13      11       5       3
       1       1       1       1       1       2       5       3      13       7       2
       3       3       1       3       1       8      16      12      11       5       3
       3       1       1       2       3       5      12       9      16       7       2
       3       2       3       3       3      16       0       7       0      12       3
       2       1       1       2       1       6      12       6       0       0       2
       3       3       1       1       3      12      12       0       1       8       2
       2       3       3       3       2       0       8       9      12       7       3
       3       2       2       2       2       0      11       4      16       8       3
       2       3       2       2       1       8       0      10       1       5       2
       3       3       2       3       1       8       7       4       6      15       3
       2       2       2       1       2      10      14       1       0       0       2
       1       3       2       3       3       2      14       7       8      11       2
       3       2       3       2       1      16      12       4      13      13       3
       2       2       3       3       1      15      16      14       2       1       2
       3       1       3       3       3       1      10      10      10       2       2
       1       1       3       2       3      12       1       5       6       5       2
       3       1       2       2       1      13       5       9       3       9       3
       1       3       1       2       3      14      16      13       7       0       2
       2       2       2       2       3       8      15       2      14      11       2
       2       1       1       3       3       6      11      14      15      13       3
       1       2       3       3       3      12       9      15      15      16       3
       2       1       3       2       1       4      14       4      10      12       3
       3       3       1       1       3      13       5       0       8      10       3
       3       2       2       2       1       9       7       7      10      12       2
       1       2       2       1       1       3       9       7       7       9       3
       2       1       1       3       2       5       0       0       9       0       2
       3       2       2       2       1       8       6       4       8       1       2
       2       2       2       3       3       6       2      14      16      15       2
       3       2       1       3       2      15      13       3      13      16       3
       3       1       1       3       1      10       2      11      10      11       3
       2       3       3       1       3       2       3       5       0      10       3
       1       1       1       3       3      10      16      10       6       3       2
       2       3       1       3       1       8       8      14       8      15       2
       1       1       3       2       3      11       9       3       9      15       3
       1       2       1       3       1       0      13       7       5      11       2
       1       3       3       3       2       1      11       4       1      13       3
       3       1       1       3       2       4      14       7       6      12       3
       3       1       2       2       1       7      10       9       7       4       3
       1       3       1       1       2       5       7      16      16      14       2
       2       3       2       3       2       3       4      16      16       4       3
       3       2       3       1       1       3      16      11       5       5       3
       3       2       1       1       2       0      15       0       8       2       2
       3       3       3       3       2      15      15      13       6       8       3
       1       2       1       3       3       9      16       2      13       4       2
       1       1       3       1       1       2      10      10       2       2       2
       2       2       2       3       2       8       6       3      14       3       3
       2       3       3       3       3       6      15      10       0      13       3
       2       2       2       3       1       7       1      15       2       4       2
       1       1       2       1       1      12      16       9      16      12       2
       2       2       3       3       1       4       0       8       1      10       2
       3       1       3       1       1      11      10       0       1      15       3
       1       1       2       2       1       1      15       1       4       0       3
       2       1       1       1       1       5       8       3       5       0       3
       3       1       2       3       2       3       9       8       8      11       2
       2       2       3       2       3      10       4      13       4       9       3
       3       2       1       1       2      15      10       3       5      12       3
       2       1       2       2       1      14       6      15      14      11       2
       3       1       2       1       1      13      16      13      13      11       2
       1       1       1       1       3       2       9       9      16       7       3
       2       3       2       2       2       4      13      16      12       8       2
       1       2       2       3       2      11      11       1      13       3       2
       3       3       3       2       2       3      12      14       4       7       3
       1       1       2       2       3       8      11       7       3      16       3
       1       1       2       2       1      12       7       5       5       3       3
       3       3       3       3       3       4       3      16       1       2       2
       3       2       2       2       3       1       2       2      15       9       3
       3       2       3       3       3       1      11       0       8      16       2
       2       3       1       2       3       4       4       5      15      10       3
       1       1       1       3       3       8       5       9       9      12       2
       3       2       3       2       2      14       9      10       4       4       3
       2       1       2       1       1      13       1       2      12       2       2
       1       2       3       3       2       9       9      14      16       0       2
       1       3       2       2       3      12      14       2      10       3       2
       2       1       2       3       1      14       1      12       2      11       2
       3       2       3       1       2       4      12      13       9      15       2
       1       1       3       3       3      11       2      14       6       1       2
       2       1       1       2       3       9      15      14       5      13       3
       3       3       3       3       2      15      12       8      14       8       2
       2       1       1       2       1       0       4       6       9       4       2
       3       2       1       1       2       0      14      12       1       0       2
       1       3       2       2       1       6       1      15      12      14       3
       1       2       2       1       3       9       8      10      16      16       2
       3       1       2       3       2       7       4       0       7       0       2
       2       3       2       3       3       9      10      13      15       7       3
       1       3       1       1       1       3      13       7       6       1       3
       1       1       1       3       1      12      12       6       2       0       3
       2       2       3       1       1       0      14      13       6      12       3
       1       3       2       3       3       1       1       0       7      15       2
       3       3       2       3       3      15      11      15       8      16       3
       1       2       3       3       3      12       7       1      10      16       3
       1       3       2       3       3       1       7      15       2       8       3
       3       1       2       1       3       3       0       2      14       4       3
       2       2       1       2       3       6       4       5       4       5       2
       1       3       3       3       3       4       4      15      10      12       3
       3       1       1       3       3       0      12      10      15       5       2
       1       3       1       3       1      16       4       0      16      16       2
      73      75      83      80      64
     148     147     165     178     130
     285     345     296     372     192